22
2 10 13 
2 19 22 
2 43 55 
2 31 25 
2 28 4 
3 7 6 23 
3 51 53 30 
3 59 58 60 
3 39 1 2 
3 3 37 24 
3 46 44 16 
3 40 48 47 
3 52 18 35 
3 54 42 15 
3 36 9 8 
3 33 21 34 
3 27 57 45 
3 41 29 49 
3 32 38 17 
3 5 26 50 
3 12 20 14 
2 56 11 
